;; sat

(declare-const x1 sl.list.loc)
(declare-const x2 sl.list.loc)
(declare-const x3 sl.list.loc)
(declare-const x4 sl.list.loc)
(declare-const x5 sl.list.loc)
(declare-const x6 sl.list.loc)
(declare-const x7 sl.list.loc)

(assert (and (sl.sepcon (sl.sepcon (sl.sepcon (sl.sepcon (sl.sepcon (sl.sepcon (sl.sepcon (sl.sepcon (sl.sepcon (sl.sepcon (sl.sepcon (sl.list.eq sl.list.null sl.list.null)
 (sl.list.neq sl.list.null x1)
)
 (sl.list.neq sl.list.null x2)
)
 (sl.list.neq sl.list.null x3)
)
 (sl.list.neq sl.list.null x4)
)
 (sl.list.neq sl.list.null x5)
)
 (sl.list.neq sl.list.null x6)
)
 (sl.list.neq x1 x6)
)
 (sl.list.neq x2 x6)
)
 (sl.list.neq x3 x4)
)
 (sl.list.neq x3 x5)
)
 (sl.sepcon (sl.sepcon (sl.list.next x1 x6)
 (sl.list.seg x2 x1)
)
 (sl.list.next x6 x2)
)
)
 (not (sl.sepcon (sl.list.neq x6 x7)
 (sl.sepcon (sl.list.seg x7 x6)
 (sl.list.next x6 x7)
)
)
))
)

